language Essence 1.3

letting pain be
[ 
    [ 
        [ 
            (true,false,true), 
            (false,false,false) 
        ], 
        [ 
            (false,false,false), 
            (false,false,false) 
        ] 
    ], 
    [ 
        [ 
            (false,false,false), 
            (false,false,false) 
        ], 
        [ 
            (false,false,false), 
            (false,false,false) 
        ] 
    ]
]
